************************************************************************
file with basedata            : mm6_.bas
initial value random generator: 561347072
************************************************************************
projects                      :  1
jobs (incl. supersource/sink ):  12
horizon                       :  72
RESOURCES
  - renewable                 :  2   R
  - nonrenewable              :  2   N
  - doubly constrained        :  0   D
************************************************************************
PROJECT INFORMATION:
pronr.  #jobs rel.date duedate tardcost  MPM-Time
    1     10      0       14        2       14
************************************************************************
PRECEDENCE RELATIONS:
jobnr.    #modes  #successors   successors
   0        1          3           1   2   3
   1        3          1           8
   2        3          3           4   6  10
   3        3          2           5   7
   4        3          2           7   8
   5        3          2           8  10
   6        3          1           7
   7        3          1           9
   8        3          1          11
   9        3          1          11
  10        3          1          11
  11        1          0        
************************************************************************
REQUESTS/DURATIONS:
jobnr. mode duration  R 1  R 2  R 3  R 4  E(W 1)
------------------------------------------------------------------------
  0      1     0       0    0    0    0     0
  1      1     1       0    9    4    8    21
  2      1     1       0    2    6    4    12
  3      1     3       0    1    7    6    45
  4      1     3      10    0   10   10    90
  5      1     5       0    5    7    7    95
  6      1     2       1    0    4    7    26
  7      1     6       0    6    7    9    132
  8      1     6       6    0    4    2    72
  9      1     2       0    6    9    9    48
 10      1     2       0    8    8    7    46
 11      1     0       0    0    0    0     0
************************************************************************
RESOURCEAVAILABILITIES:
  R 1
   125
************************************************************************
RESOURCE LIMITS:
jobnr.  l(R 1)  u(R 1)
------------------------------------------------------------------------
  0        0       0
  1       11      21
  2        6      12
  3        8      15
  4       15      30
  5       11      19
  6        7      13
  7       12      22
  8        6      12
  9       13      24
 10       12      23
 11        0       0
************************************************************************
SCENARIOS:
------------------------------------------------------------------------
RESOURCE k = 1
s = 1: (0, 18, 16, 36, 72, 108, 34, 181, 45, 35, 35, 0)
s = 2: (0, 26, 17, 45, 80, 136, 27, 81, 72, 61, 24, 0)
s = 3: (0, 19, 13, 30, 127, 68, 27, 86, 114, 39, 44, 0)
s = 4: (0, 19, 18, 54, 84, 119, 25, 116, 58, 32, 36, 0)
s = 5: (0, 21, 14, 64, 115, 76, 24, 114, 54, 40, 35, 0)
s = 6: (0, 28, 13, 37, 79, 138, 26, 116, 105, 28, 44, 0)
s = 7: (0, 17, 11, 36, 79, 67, 39, 242, 74, 51, 35, 0)
s = 8: (0, 16, 10, 75, 133, 56, 29, 165, 118, 61, 36, 0)
s = 9: (0, 26, 13, 31, 72, 86, 22, 173, 46, 53, 47, 0)
s = 10: (0, 20, 19, 62, 98, 68, 36, 173, 58, 28, 46, 0)
s = 11: (0, 24, 12, 30, 75, 93, 31, 104, 50, 32, 57, 0)
s = 12: (0, 15, 8, 66, 65, 73, 24, 137, 47, 33, 44, 0)
s = 13: (0, 24, 12, 33, 64, 89, 28, 184, 74, 55, 45, 0)
s = 14: (0, 14, 9, 38, 98, 73, 21, 83, 86, 74, 70, 0)
s = 15: (0, 33, 12, 63, 88, 82, 34, 71, 54, 56, 28, 0)
s = 16: (0, 24, 17, 38, 99, 52, 20, 153, 80, 33, 53, 0)
s = 17: (0, 19, 8, 60, 133, 96, 24, 153, 80, 48, 40, 0)
s = 18: (0, 35, 12, 53, 148, 67, 21, 99, 59, 75, 57, 0)
s = 19: (0, 21, 19, 33, 58, 100, 31, 148, 62, 39, 65, 0)
s = 20: (0, 29, 8, 36, 69, 105, 23, 158, 82, 31, 44, 0)
s = 21: (0, 21, 13, 33, 93, 93, 16, 131, 71, 43, 40, 0)
s = 22: (0, 21, 7, 28, 52, 101, 21, 140, 100, 40, 44, 0)
s = 23: (0, 23, 9, 39, 97, 118, 26, 115, 86, 49, 45, 0)
s = 24: (0, 24, 14, 39, 156, 72, 34, 148, 51, 66, 36, 0)
s = 25: (0, 20, 14, 53, 65, 90, 24, 187, 90, 44, 43, 0)
s = 26: (0, 17, 9, 29, 93, 74, 31, 122, 68, 39, 55, 0)
s = 27: (0, 29, 14, 35, 74, 117, 20, 149, 65, 63, 60, 0)
s = 28: (0, 22, 11, 39, 103, 67, 14, 156, 82, 81, 43, 0)
s = 29: (0, 22, 10, 53, 137, 80, 22, 104, 126, 29, 49, 0)
s = 30: (0, 12, 15, 53, 89, 61, 21, 132, 54, 58, 58, 0)
s = 31: (0, 23, 8, 42, 99, 81, 27, 99, 47, 53, 72, 0)
s = 32: (0, 16, 8, 51, 74, 82, 38, 170, 107, 46, 44, 0)
s = 33: (0, 17, 11, 45, 86, 160, 17, 138, 48, 51, 44, 0)
s = 34: (0, 32, 11, 61, 58, 96, 27, 135, 85, 49, 39, 0)
s = 35: (0, 19, 10, 55, 137, 70, 17, 109, 65, 70, 48, 0)
s = 36: (0, 18, 12, 40, 104, 66, 23, 89, 69, 39, 52, 0)
s = 37: (0, 29, 18, 31, 64, 82, 23, 143, 63, 44, 29, 0)
s = 38: (0, 13, 13, 46, 91, 96, 42, 144, 69, 46, 63, 0)
s = 39: (0, 19, 14, 45, 94, 128, 22, 92, 56, 35, 34, 0)
s = 40: (0, 19, 9, 29, 67, 104, 26, 82, 87, 51, 26, 0)
s = 41: (0, 13, 11, 32, 77, 143, 30, 93, 47, 40, 34, 0)
s = 42: (0, 18, 12, 32, 69, 58, 30, 156, 72, 51, 54, 0)
s = 43: (0, 21, 11, 25, 59, 63, 21, 138, 80, 45, 44, 0)
s = 44: (0, 15, 18, 47, 138, 81, 27, 191, 66, 38, 38, 0)
s = 45: (0, 14, 13, 55, 71, 130, 20, 107, 87, 40, 46, 0)
s = 46: (0, 19, 10, 54, 90, 76, 22, 141, 58, 58, 35, 0)
s = 47: (0, 29, 9, 38, 122, 139, 21, 154, 80, 30, 33, 0)
s = 48: (0, 16, 17, 45, 87, 73, 42, 142, 61, 65, 61, 0)
s = 49: (0, 21, 19, 41, 59, 82, 20, 100, 88, 28, 38, 0)
s = 50: (0, 13, 20, 60, 79, 136, 37, 138, 94, 42, 45, 0)
s = 51: (0, 15, 13, 41, 93, 78, 34, 154, 74, 64, 39, 0)
s = 52: (0, 15, 7, 42, 84, 113, 27, 155, 80, 40, 63, 0)
s = 53: (0, 22, 13, 35, 112, 69, 29, 79, 68, 38, 29, 0)
s = 54: (0, 23, 10, 31, 145, 100, 28, 111, 89, 68, 38, 0)
s = 55: (0, 19, 18, 51, 60, 57, 14, 96, 88, 70, 58, 0)
s = 56: (0, 18, 12, 60, 92, 69, 32, 108, 79, 31, 44, 0)
s = 57: (0, 13, 13, 76, 70, 101, 23, 103, 78, 38, 33, 0)
s = 58: (0, 28, 16, 39, 64, 106, 21, 72, 46, 43, 37, 0)
s = 59: (0, 17, 15, 55, 82, 109, 27, 97, 79, 45, 50, 0)
s = 60: (0, 26, 13, 48, 122, 73, 17, 178, 82, 29, 36, 0)
s = 61: (0, 18, 12, 25, 103, 106, 23, 84, 50, 36, 38, 0)
s = 62: (0, 24, 14, 38, 87, 95, 24, 126, 67, 30, 50, 0)
s = 63: (0, 24, 12, 55, 84, 154, 24, 170, 48, 40, 57, 0)
s = 64: (0, 19, 15, 29, 74, 87, 26, 138, 47, 52, 28, 0)
s = 65: (0, 21, 10, 41, 56, 60, 29, 115, 66, 41, 40, 0)
s = 66: (0, 21, 11, 28, 91, 61, 19, 194, 52, 68, 37, 0)
s = 67: (0, 15, 9, 33, 100, 139, 21, 125, 91, 51, 50, 0)
s = 68: (0, 24, 13, 47, 93, 92, 22, 156, 72, 36, 64, 0)
s = 69: (0, 19, 13, 41, 114, 73, 26, 153, 71, 34, 76, 0)
s = 70: (0, 16, 18, 63, 64, 100, 27, 78, 91, 90, 46, 0)
s = 71: (0, 20, 10, 68, 107, 98, 18, 91, 84, 40, 50, 0)
s = 72: (0, 16, 10, 33, 65, 80, 22, 131, 56, 38, 69, 0)
s = 73: (0, 24, 7, 63, 119, 111, 26, 124, 41, 41, 55, 0)
s = 74: (0, 19, 14, 41, 89, 90, 16, 111, 77, 46, 40, 0)
s = 75: (0, 23, 17, 40, 66, 111, 23, 114, 112, 41, 63, 0)
s = 76: (0, 16, 10, 33, 85, 87, 29, 159, 64, 64, 46, 0)
s = 77: (0, 22, 10, 26, 72, 119, 34, 124, 66, 78, 57, 0)
s = 78: (0, 17, 9, 59, 78, 61, 21, 87, 95, 57, 54, 0)
s = 79: (0, 17, 13, 35, 57, 79, 30, 136, 98, 61, 42, 0)
s = 80: (0, 15, 15, 48, 84, 92, 19, 134, 65, 60, 54, 0)
s = 81: (0, 30, 18, 41, 78, 108, 35, 132, 62, 81, 48, 0)
s = 82: (0, 21, 9, 41, 74, 72, 32, 68, 78, 48, 37, 0)
s = 83: (0, 21, 12, 49, 68, 71, 37, 143, 64, 53, 29, 0)
s = 84: (0, 16, 16, 28, 69, 99, 24, 152, 58, 70, 43, 0)
s = 85: (0, 23, 8, 48, 127, 97, 26, 128, 44, 29, 52, 0)
s = 86: (0, 29, 16, 34, 65, 70, 19, 203, 75, 35, 44, 0)
s = 87: (0, 16, 12, 37, 70, 110, 28, 118, 63, 33, 44, 0)
s = 88: (0, 27, 15, 27, 87, 57, 24, 163, 55, 32, 36, 0)
s = 89: (0, 20, 10, 49, 91, 73, 17, 227, 101, 44, 35, 0)
s = 90: (0, 26, 18, 66, 58, 60, 52, 103, 49, 56, 52, 0)
s = 91: (0, 21, 14, 45, 87, 80, 20, 79, 58, 53, 26, 0)
s = 92: (0, 17, 9, 41, 139, 89, 19, 114, 73, 26, 28, 0)
s = 93: (0, 23, 7, 42, 81, 121, 39, 109, 56, 34, 57, 0)
s = 94: (0, 13, 17, 41, 88, 76, 25, 87, 59, 54, 27, 0)
s = 95: (0, 22, 12, 51, 111, 88, 23, 225, 63, 63, 39, 0)
s = 96: (0, 27, 8, 33, 84, 90, 19, 73, 73, 33, 44, 0)
s = 97: (0, 19, 11, 53, 102, 93, 28, 89, 71, 36, 42, 0)
s = 98: (0, 19, 11, 65, 90, 85, 31, 141, 91, 29, 26, 0)
s = 99: (0, 30, 10, 41, 74, 137, 16, 152, 61, 43, 67, 0)
s = 100: (0, 24, 9, 50, 72, 126, 19, 163, 112, 56, 35, 0)
s = 101: (0, 25, 21, 57, 110, 70, 25, 89, 67, 44, 51, 0)
s = 102: (0, 19, 13, 29, 102, 58, 22, 141, 42, 75, 62, 0)
s = 103: (0, 13, 19, 29, 84, 96, 36, 110, 55, 66, 47, 0)
s = 104: (0, 17, 9, 45, 129, 122, 21, 121, 80, 40, 31, 0)
s = 105: (0, 14, 18, 81, 97, 159, 20, 217, 56, 64, 55, 0)
s = 106: (0, 16, 14, 76, 89, 80, 34, 203, 60, 63, 31, 0)
s = 107: (0, 22, 9, 47, 75, 91, 23, 114, 68, 57, 42, 0)
s = 108: (0, 27, 17, 45, 141, 111, 16, 179, 68, 67, 39, 0)
s = 109: (0, 15, 12, 45, 57, 67, 21, 241, 46, 48, 35, 0)
s = 110: (0, 25, 12, 37, 63, 68, 36, 100, 116, 53, 54, 0)
s = 111: (0, 18, 15, 62, 78, 105, 18, 117, 76, 79, 61, 0)
s = 112: (0, 20, 10, 38, 125, 95, 15, 79, 48, 50, 35, 0)
s = 113: (0, 19, 12, 25, 87, 183, 39, 143, 112, 53, 52, 0)
s = 114: (0, 36, 9, 37, 94, 66, 28, 208, 61, 32, 89, 0)
s = 115: (0, 17, 15, 38, 78, 95, 30, 103, 107, 58, 53, 0)
s = 116: (0, 32, 21, 24, 152, 69, 21, 94, 66, 57, 45, 0)
s = 117: (0, 29, 11, 30, 96, 71, 14, 142, 76, 52, 51, 0)
s = 118: (0, 24, 10, 35, 62, 127, 17, 71, 57, 46, 36, 0)
s = 119: (0, 18, 15, 49, 76, 84, 17, 136, 81, 51, 73, 0)
s = 120: (0, 19, 10, 52, 49, 63, 28, 130, 69, 40, 40, 0)
s = 121: (0, 26, 10, 58, 75, 68, 28, 116, 57, 58, 45, 0)
s = 122: (0, 29, 17, 51, 125, 82, 28, 80, 75, 55, 51, 0)
s = 123: (0, 13, 15, 63, 53, 64, 41, 126, 53, 70, 26, 0)
s = 124: (0, 14, 9, 39, 74, 107, 29, 177, 102, 31, 31, 0)
s = 125: (0, 25, 15, 54, 70, 129, 28, 127, 109, 51, 43, 0)
s = 126: (0, 22, 15, 37, 105, 128, 27, 107, 68, 79, 40, 0)
s = 127: (0, 27, 16, 37, 104, 77, 17, 92, 65, 87, 35, 0)
s = 128: (0, 22, 15, 29, 97, 114, 15, 143, 80, 42, 40, 0)
s = 129: (0, 31, 13, 51, 67, 110, 23, 155, 62, 47, 74, 0)
s = 130: (0, 24, 21, 58, 79, 79, 22, 168, 102, 32, 49, 0)
s = 131: (0, 19, 14, 66, 113, 138, 38, 161, 54, 47, 54, 0)
s = 132: (0, 21, 18, 32, 136, 99, 31, 146, 86, 43, 57, 0)
s = 133: (0, 30, 11, 65, 98, 86, 24, 104, 63, 72, 73, 0)
s = 134: (0, 29, 7, 32, 72, 93, 22, 186, 91, 35, 42, 0)
s = 135: (0, 26, 11, 40, 101, 100, 18, 209, 49, 48, 39, 0)
s = 136: (0, 26, 12, 59, 59, 57, 23, 150, 44, 40, 54, 0)
s = 137: (0, 27, 9, 54, 79, 153, 20, 124, 69, 50, 53, 0)
s = 138: (0, 19, 13, 38, 63, 129, 25, 190, 52, 31, 30, 0)
s = 139: (0, 14, 9, 36, 75, 127, 33, 171, 103, 46, 47, 0)
s = 140: (0, 15, 8, 46, 145, 56, 21, 112, 88, 52, 32, 0)
s = 141: (0, 18, 10, 34, 108, 103, 28, 178, 116, 71, 27, 0)
s = 142: (0, 14, 13, 45, 111, 74, 20, 77, 54, 60, 65, 0)
s = 143: (0, 20, 10, 61, 64, 107, 26, 148, 110, 33, 37, 0)
s = 144: (0, 15, 16, 42, 114, 80, 18, 135, 69, 48, 44, 0)
s = 145: (0, 26, 15, 44, 112, 121, 32, 219, 67, 44, 29, 0)
s = 146: (0, 27, 13, 55, 76, 106, 14, 233, 63, 57, 70, 0)
s = 147: (0, 16, 17, 61, 111, 166, 28, 107, 55, 38, 67, 0)
s = 148: (0, 19, 9, 31, 58, 67, 16, 106, 58, 33, 38, 0)
s = 149: (0, 17, 10, 55, 112, 93, 19, 138, 59, 57, 63, 0)
s = 150: (0, 14, 14, 73, 105, 102, 17, 100, 58, 35, 27, 0)
s = 151: (0, 25, 9, 46, 110, 76, 32, 242, 53, 34, 72, 0)
s = 152: (0, 14, 19, 42, 64, 98, 15, 157, 91, 84, 70, 0)
s = 153: (0, 25, 8, 55, 66, 90, 36, 143, 56, 41, 79, 0)
s = 154: (0, 25, 11, 56, 106, 69, 17, 137, 82, 32, 49, 0)
s = 155: (0, 38, 12, 45, 153, 136, 22, 224, 62, 44, 62, 0)
s = 156: (0, 24, 10, 39, 87, 107, 33, 157, 51, 38, 47, 0)
s = 157: (0, 22, 15, 52, 76, 90, 23, 170, 48, 35, 53, 0)
s = 158: (0, 18, 12, 60, 83, 107, 53, 120, 65, 28, 43, 0)
s = 159: (0, 21, 8, 75, 60, 145, 26, 97, 57, 68, 66, 0)
s = 160: (0, 32, 16, 36, 83, 73, 30, 132, 79, 63, 64, 0)
s = 161: (0, 28, 12, 34, 116, 80, 18, 92, 73, 66, 38, 0)
s = 162: (0, 15, 19, 32, 136, 73, 30, 159, 100, 56, 41, 0)
s = 163: (0, 22, 13, 38, 55, 134, 27, 99, 59, 68, 28, 0)
s = 164: (0, 15, 20, 29, 105, 105, 17, 128, 54, 41, 37, 0)
s = 165: (0, 20, 20, 32, 77, 113, 23, 118, 53, 56, 77, 0)
s = 166: (0, 15, 14, 41, 95, 78, 19, 88, 68, 46, 54, 0)
s = 167: (0, 32, 11, 47, 127, 86, 18, 159, 49, 35, 42, 0)
s = 168: (0, 18, 17, 39, 95, 147, 25, 78, 54, 80, 27, 0)
s = 169: (0, 14, 19, 40, 80, 148, 19, 121, 55, 45, 80, 0)
s = 170: (0, 19, 16, 37, 76, 136, 27, 213, 67, 54, 31, 0)
s = 171: (0, 25, 11, 44, 127, 84, 29, 90, 48, 69, 59, 0)
s = 172: (0, 33, 8, 56, 89, 115, 35, 137, 89, 36, 62, 0)
s = 173: (0, 14, 9, 44, 93, 72, 14, 115, 63, 67, 35, 0)
s = 174: (0, 21, 12, 51, 76, 160, 21, 153, 121, 53, 64, 0)
s = 175: (0, 17, 18, 70, 139, 91, 27, 109, 54, 75, 37, 0)
s = 176: (0, 17, 9, 66, 79, 123, 19, 141, 45, 40, 66, 0)
s = 177: (0, 26, 17, 32, 79, 72, 42, 171, 43, 51, 31, 0)
s = 178: (0, 34, 18, 46, 108, 82, 19, 143, 59, 55, 42, 0)
s = 179: (0, 13, 20, 28, 123, 95, 22, 110, 96, 33, 42, 0)
s = 180: (0, 27, 13, 56, 72, 93, 24, 93, 58, 42, 25, 0)
s = 181: (0, 25, 8, 29, 99, 103, 24, 198, 54, 76, 52, 0)
s = 182: (0, 14, 16, 81, 123, 101, 33, 105, 97, 52, 29, 0)
s = 183: (0, 19, 9, 41, 119, 96, 22, 223, 69, 44, 40, 0)
s = 184: (0, 21, 9, 30, 117, 124, 22, 134, 40, 71, 56, 0)
s = 185: (0, 21, 12, 43, 128, 125, 19, 130, 54, 36, 55, 0)
s = 186: (0, 37, 10, 35, 73, 91, 17, 162, 86, 60, 49, 0)
s = 187: (0, 18, 14, 50, 103, 75, 26, 134, 122, 33, 51, 0)
s = 188: (0, 22, 10, 44, 98, 58, 28, 112, 58, 61, 44, 0)
s = 189: (0, 28, 14, 56, 101, 114, 29, 157, 97, 41, 59, 0)
s = 190: (0, 15, 9, 53, 77, 113, 21, 93, 72, 43, 44, 0)
s = 191: (0, 16, 16, 41, 101, 139, 32, 133, 54, 54, 43, 0)
s = 192: (0, 16, 16, 43, 89, 88, 23, 155, 81, 45, 42, 0)
s = 193: (0, 16, 16, 68, 54, 80, 28, 144, 90, 39, 44, 0)
s = 194: (0, 12, 12, 54, 53, 153, 17, 117, 113, 43, 32, 0)
s = 195: (0, 23, 15, 36, 99, 112, 36, 134, 66, 63, 28, 0)
s = 196: (0, 11, 11, 43, 107, 115, 17, 96, 90, 41, 33, 0)
s = 197: (0, 13, 9, 38, 68, 73, 30, 88, 58, 33, 46, 0)
s = 198: (0, 17, 13, 47, 73, 122, 21, 104, 77, 45, 41, 0)
s = 199: (0, 20, 11, 61, 105, 95, 21, 106, 65, 36, 34, 0)
s = 200: (0, 22, 10, 64, 113, 74, 22, 131, 115, 62, 49, 0)
************************************************************************
ES/LS-VALUES:
jobnr.   ES(i)    LS(i)
------------------------------------------------------------------------
  0        0        0
  1        0       59
  2        0       49
  3        0       45
  4        1       51
  5        5       51
  6        1       52
  7        6       57
  8       14       61
  9       17       68
 10       14       68
 11       24       72
************************************************************************
BIG-M-VALUES:
M1 = 21, M2 = 242
************************************************************************
